(set-logic ALL)
(set-option :fmf-bound true)
(set-option :produce-models true)
(declare-sort Object 0)

(declare-fun var1 (Bool) Bool)
(declare-fun var9 (Bool) Bool)
(declare-fun var10 (Bool) Bool)
(declare-fun var21 (Bool) Bool)
(declare-fun var4 (Bool) Bool)
(declare-fun var6 (Bool) Bool)
(declare-fun var11 (Bool) Bool)
(declare-fun var13 (Bool) Bool)
(declare-fun var15 (Bool) Bool)
(declare-fun var3 (Bool) Bool)
(declare-fun var17 (Bool) Bool)
(declare-fun var8 (Bool) Bool)
(declare-fun var16 (Bool) Bool)
(declare-fun var2 (Bool) Bool)
(declare-fun var23 (Bool) Bool)
(declare-fun var14 (Bool) Bool)
(declare-fun var5 (Bool) Bool)
(declare-fun var24 (Bool) Bool)
(declare-fun var22 (Bool) Bool)
(declare-fun var7 (Bool) Bool)
(declare-fun var12 (Bool) Bool)
(declare-fun var19 (Bool) Bool)
(declare-fun var20 (Bool) Bool)
(declare-fun var25 (Bool) Bool)
(declare-fun var18 (Bool) Bool)
(declare-fun GTE (Bool Bool) Bool)
(define-fun implies ((p Bool)(q Bool)) Bool (or (not p) q))

(assert (forall ((x Bool)) (not(or (not(var1 x)) (var9 x)))))
(assert (forall ((x Bool)) (not(or (not(var10 x)) (not(var21 x))))))
(assert (forall ((x Bool)) (not(or (var4 x) (not(var6 x))))))
(assert (forall ((x Bool)) (not(or (var11 x) (var13 x)))))
(assert (forall ((x Bool)) (not(or (var15 x) (var3 x)))))
(assert (forall ((x Bool)) (not(or (var17 x) (var9 x)))))
(assert (forall ((x Bool)) (not(or (not(var13 x)) (var8 x)))))
(assert (forall ((x Bool)) (not(or (not(var11 x)) (var1 x)))))
(assert (forall ((x Bool)) (not(or (not(var16 x)) (not(var3 x))))))
(assert (forall ((x Bool)) (not(or (not(var2 x)) (not(var23 x))))))
(assert (forall ((x Bool)) (not(or (var2 x) (var10 x)))))
(assert (forall ((x Bool)) (not(or (var13 x) (var14 x)))))
(assert (forall ((x Bool)) (not(or (var11 x) (not(var8 x))))))
(assert (forall ((x Bool)) (not(or (var16 x) (not(var10 x))))))
(assert (forall ((x Bool)) (not(or (var5 x) (not(var9 x))))))
(assert (forall ((x Bool)) (not(or (var6 x) (not(var13 x))))))
(assert (forall ((x Bool)) (not(or (not(var15 x)) (var3 x)))))
(assert (forall ((x Bool)) (not(or (var4 x) (not(var14 x))))))
(assert (forall ((x Bool)) (not(or (not(var24 x)) (var2 x)))))
(assert (forall ((x Bool)) (not(or (not(var9 x)) (var21 x)))))
(assert (forall ((x Bool)) (not(or (not(var11 x)) (not(var10 x))))))
(assert (forall ((x Bool)) (not(or (var21 x) (var14 x)))))
(assert (forall ((x Bool)) (not(or (var5 x) (var9 x)))))
(assert (forall ((x Bool)) (not(or (var23 x) (var22 x)))))
(assert (forall ((x Bool)) (not(or (var23 x) (not(var2 x))))))
(assert (forall ((x Bool))  (exists ((x1 Bool)) (and(GTE x x1)  (implies (not(var13 x1)) (var16 x))))))
(assert (forall ((x Bool))  (exists ((x1 Bool)) (and(GTE x x1)  (implies (var11 x1) (var4 x))))))
(assert (forall ((x Bool))  (exists ((x1 Bool)) (and(GTE x x1)  (implies (var17 x1) (var7 x))))))
(assert (forall ((x Bool))  (exists ((x1 Bool)) (and(GTE x x1)  (implies (var14 x1) (not(var9 x)))))))
(assert (forall ((x Bool))  (exists ((x1 Bool)) (and(GTE x x1)  (implies (not(var11 x1)) (not(var6 x)))))))
(assert (forall ((x Bool))  (exists ((x1 Bool)) (and(GTE x x1)  (implies (var1 x1) (var11 x))))))
(assert (forall ((x Bool))  (exists ((x1 Bool)) (and(GTE x x1)  (implies (not(var1 x1)) (var24 x))))))
(assert (forall ((x Bool))  (exists ((x1 Bool)) (and(GTE x x1)  (implies (var12 x1) (not(var14 x)))))))
(assert (forall ((x Bool))  (exists ((x1 Bool)) (and(GTE x x1)  (implies (not(var8 x1)) (var2 x))))))
(assert (forall ((x Bool))  (exists ((x1 Bool)) (and(GTE x x1)  (implies (var8 x1) (var15 x))))))
(assert (forall ((x Bool))  (exists ((x1 Bool)) (and(GTE x x1)  (implies (var19 x1) (var20 x))))))
(assert (forall ((x Bool))  (exists ((x1 Bool)) (and(GTE x x1)  (implies (var25 x1) (not(var10 x)))))))
(assert (forall ((x Bool))  (exists ((x1 Bool)) (and(GTE x x1)  (implies (var7 x1) (var14 x))))))
(assert (forall ((x Bool))  (exists ((x1 Bool)) (and(GTE x x1)  (implies (var12 x1) (var20 x))))))
(assert (forall ((x Bool))  (exists ((x1 Bool)) (and(GTE x x1)  (implies (not(var8 x1)) (not(var15 x)))))))
(assert (forall ((x Bool))  (exists ((x1 Bool)) (and(GTE x x1)  (implies (var20 x1) (not(var16 x)))))))
(assert (forall ((x Bool))  (exists ((x1 Bool)) (and(GTE x x1)  (implies (var25 x1) (not(var19 x)))))))
(assert (forall ((x Bool))  (exists ((x1 Bool)) (and(GTE x x1)  (implies (not(var2 x1)) (var25 x))))))
(assert (forall ((x Bool))  (exists ((x1 Bool)) (and(GTE x x1)  (implies (var10 x1) (not(var19 x)))))))
(assert (forall ((x Bool))  (exists ((x1 Bool)) (and(GTE x x1)  (implies (not(var25 x1)) (var16 x))))))
(assert (forall ((x Bool))  (exists ((x1 Bool)) (and(GTE x x1)  (implies (var22 x1) (not(var12 x)))))))
(assert (forall ((x Bool))  (exists ((x1 Bool)) (and(GTE x x1)  (implies (not(var18 x1)) (not(var1 x)))))))
(assert (forall ((x Bool))  (exists ((x1 Bool)) (and(GTE x x1)  (implies (var2 x1) (not(var13 x)))))))
(assert (forall ((x Bool))  (exists ((x1 Bool)) (and(GTE x x1)  (implies (var8 x1) (not(var25 x)))))))
(assert (forall ((x Bool))  (exists ((x1 Bool)) (and(GTE x x1)  (implies (not(var22 x1)) (not(var7 x)))))))
(check-sat)
(get-model)
